c colouring generated by benchmark framework
p edge 211 3541
v 1 3
v 2 24
v 3 22
v 4 4
v 5 27
v 6 7
v 7 2
v 8 0
v 9 1
v 10 21
v 11 29
v 12 18
v 13 25
v 14 23
v 15 17
v 16 30
v 17 21
v 18 19
v 19 11
v 20 14
v 21 8
v 22 6
v 23 12
v 24 5
v 25 2
v 26 3
v 27 17
v 28 10
v 29 7
v 30 0
v 31 4
v 32 1
v 33 11
v 34 17
v 35 15
v 36 5
v 37 13
v 38 12
v 39 18
v 40 9
v 41 9
v 42 8
v 43 8
v 44 10
v 45 13
v 46 28
v 47 6
v 48 16
v 49 26
v 50 27
v 51 10
v 52 22
v 53 2
v 54 6
v 55 24
v 56 14
v 57 11
v 58 9
v 59 14
v 60 12
v 61 15
v 62 9
v 63 26
v 64 9
v 65 9
v 66 9
v 67 27
v 68 26
v 69 16
v 70 9
v 71 11
v 72 9
v 73 16
v 74 20
v 75 13
v 76 5
v 77 5
v 78 10
v 79 13
v 80 5
v 81 9
v 82 5
v 83 15
v 84 20
v 85 9
v 86 22
v 87 0
v 88 11
v 89 30
v 90 5
v 91 9
v 92 5
v 93 7
v 94 0
v 95 14
v 96 8
v 97 11
v 98 19
v 99 8
v 100 28
v 101 6
v 102 0
v 103 5
v 104 14
v 105 12
v 106 20
v 107 26
v 108 12
v 109 28
v 110 12
v 111 12
v 112 17
v 113 1
v 114 26
v 115 25
v 116 25
v 117 26
v 118 25
v 119 12
v 120 15
v 121 19
v 122 15
v 123 18
v 124 14
v 125 28
v 126 12
v 127 12
v 128 11
v 129 9
v 130 26
v 131 16
v 132 14
v 133 13
v 134 12
v 135 6
v 136 8
v 137 11
v 138 10
v 139 9
v 140 18
v 141 22
v 142 15
v 143 13
v 144 9
v 145 12
v 146 12
v 147 12
v 148 12
v 149 5
v 150 18
v 151 10
v 152 10
v 153 9
v 154 12
v 155 17
v 156 20
v 157 2
v 158 5
v 159 2
v 160 9
v 161 22
v 162 12
v 163 14
v 164 12
v 165 12
v 166 11
v 167 12
v 168 12
v 169 15
v 170 12
v 171 11
v 172 20
v 173 26
v 174 14
v 175 12
v 176 14
v 177 14
v 178 16
v 179 16
v 180 14
v 181 12
v 182 12
v 183 12
v 184 19
v 185 12
v 186 12
v 187 10
v 188 30
v 189 29
v 190 14
v 191 12
v 192 19
v 193 11
v 194 16
v 195 16
v 196 20
v 197 16
v 198 20
v 199 16
v 200 16
v 201 14
v 202 14
v 203 7
v 204 19
v 205 12
v 206 12
v 207 16
v 208 11
v 209 25
v 210 12
v 211 14
